proyfinal/src/viki/013/experimentInOfficeAgust.take6.output/ff7cb185-a6be-42da-a4b8-8e6d15e0872a.als.out
Reading from standard input... Use '--help' for help.
============================[ Problem Statistics ]=============================
|                                                                             |
|  Number of variables:         87638                                         |
|  Number of clauses:          161767                                         |
|  Parse time:                   0.04 s                                       |
|                                                                             |
============================[ Search Statistics ]==============================
| Conflicts |          ORIGINAL         |          LEARNT          | Progress |
|           |    Vars  Clauses Literals |    Limit  Clauses Lit/Cl |          |
===============================================================================
|       100 |   65253   115622   288278 |    42394      100     12 | 25.543 % |
|       250 |   65253   115622   288278 |    46634      250     21 | 25.543 % |
|       475 |   65253   115622   288278 |    51297      475     43 | 25.543 % |
|       812 |   65253   115622   288278 |    56427      812     45 | 25.543 % |
|      1318 |   65253   115622   288278 |    62070     1318     66 | 25.543 % |
|      2077 |   65253   115622   288278 |    68277     2077     70 | 25.543 % |
|      3216 |   65253   115622   288278 |    75104     3216     78 | 25.543 % |
|      4924 |   65252   115617   288266 |    82615     4923     84 | 25.544 % |
|      7486 |   65251   115612   288254 |    90876     7484     97 | 25.545 % |
|     11330 |   65251   115612   288254 |    99964    11328     92 | 25.545 % |
|     17096 |   65225   115469   287942 |   109961    16436     88 | 25.575 % |
===============================================================================
restarts              : 63
conflicts             : 18896          (7263 /sec)
decisions             : 94738          (0.00 % random) (36413 /sec)
propagations          : 25586360       (9834239 /sec)
conflict literals     : 1666307        (47.52 % deleted)
Memory used           : 38.38 MB
CPU time              : 2.60176 s

INDETERMINATE
